! Solving for graph /home/truongxuanhieu/CPLEX-CP-for-MinSpanLabeling/benchmarks/cabp/U-662_bus.mtx.rnd
! Target value is set to 165
! Lower bound is set to 166
! Upper bound is set to 662
! Time limit is set to 1800
! Vertices mode is set to Has hole
! Target value mode is set to Cyclic Antibandwidth
 ! --------------------------------------------------- CP Optimizer 22.2.0.0 --
 ! Minimization problem - 663 variables, 909 constraints, 1 phase
 ! TimeLimit            = 1800
 ! LogVerbosity         = Terse
 ! Initial process time : 0.03s (0.03s extraction + 0.00s propagation)
 !  . Log search space  : 6210.8 (before), 6210.8 (after)
 !  . Memory usage      : 2.2 MB (before), 2.2 MB (after)
 ! Using parallel search with 8 workers.
 ! ----------------------------------------------------------------------------
 !          Best Branches  Non-fixed    W       Branch decision
                        0        663                 -
 + New bound is 330
 *           662      680  0.13s        3      (gap is 50.15%)
 *           660     1458  0.16s        2      (gap is 50.00%)
             660     921k        547    7   F   170 != _int662
 + New bound is 336 (gap is 49.09%)
             660     921k        547    7   F   171 != _int662
 + New bound is 337 (gap is 48.94%)
             660     973k        591    1   F        -
 + New bound is 343 (gap is 48.03%)
             660    1148k        663    2   F   182 != _int660
 + New bound is 348 (gap is 47.27%)
             660    1075k        444    7   F   180 != _int660
 + New bound is 349 (gap is 47.12%)
             660    1056k        585    1   F        -
 + New bound is 350 (gap is 46.97%)
             660    1254k        575    2   F   189 != _int660
 + New bound is 355 (gap is 46.21%)
             660    1151k        658    1   F        -
 + New bound is 356 (gap is 46.06%)
             660    1349k        633    1   F        -
 + New bound is 361 (gap is 45.30%)
             660    1349k        633    1   F        -
 + New bound is 362 (gap is 45.15%)
             660    1496k        652    7   F   200 != _int660
 + New bound is 367 (gap is 44.39%)
             660    1424k        630    1   F        -
 + New bound is 368 (gap is 44.24%)
             660    1644k        600    1   F        -
 + New bound is 373 (gap is 43.48%)
             660    1644k        600    1   F        -
 + New bound is 374 (gap is 43.33%)
             660    1730k        577    1   F        -
 + New bound is 379 (gap is 42.58%)
             660    1730k        577    1   F        -
 + New bound is 380 (gap is 42.42%)
             660    1810k        516    1   F        -
 + New bound is 385 (gap is 41.67%)
 ! Time = 115.31s, Average fail depth = 51, Memory usage = 72.4 MB
 ! Current bound is 385 (gap is 41.67%)
 !          Best Branches  Non-fixed    W       Branch decision
             660    1810k        516    1   F        -
 + New bound is 386 (gap is 41.52%)
             660    2027k        594    7   F    98 != _int660
 + New bound is 387 (gap is 41.36%)
             660    2027k        594    7   F    98 != _int660
 + New bound is 392 (gap is 40.61%)
             660    2027k        594    7   F    98 != _int660
 + New bound is 393 (gap is 40.45%)
             660    1950k        662    1            -
 + New bound is 660 (gap is 0.00%)
 ! ----------------------------------------------------------------------------
 ! Search completed, 2 solutions found.
 ! Best objective         : 660 (optimal - effective tol. is 0)
 ! Best bound             : 660
 ! ----------------------------------------------------------------------------
 ! Number of branches     : 14592728
 ! Number of fails        : 6360667
 ! Total memory usage     : 119.7 MB (118.8 MB CP Optimizer + 0.9 MB Concert)
 ! Time spent in solve    : 122.68s (122.65s engine + 0.03s extraction)
 ! Search speed (br. / s) : 118978.6
 ! ----------------------------------------------------------------------------
! --------------------------------------------------------
! Best span = 660
! Labeling: 331 166 331 1 1 331 1 1 331 1 166 1 1 166 1 1 660 1 166 1 331 331 1 331 166 1 1 166 1 1 166 1 496 166 1 1 166 166 1 1 1 331 166 166 331 166 1 331 1 166 331 331 331 1 331 1 166 166 166 331 1 331 1 1 166 496 166 166 166 166 1 331 166 166 1 166 1 166 331 331 166 166 166 1 1 1 166 331 1 166 166 1 1 496 1 1 166 166 166 166 166 1 1 1 1 166 331 166 1 166 331 1 1 331 166 166 166 1 1 1 1 166 166 1 166 1 166 1 166 166 166 331 166 331 166 1 166 331 1 166 1 1 1 166 1 166 1 166 331 166 1 1 331 1 1 1 1 1 166 331 166 166 166 331 1 166 166 1 166 331 166 331 166 166 166 166 331 1 331 331 1 1 1 166 166 1 1 1 166 166 166 166 1 1 166 166 166 1 1 166 1 166 166 1 166 331 1 1 1 1 1 1 1 1 1 1 166 331 166 1 331 331 166 1 1 1 166 166 331 166 166 1 166 1 166 166 166 1 331 1 1 166 1 166 331 1 1 166 1 166 1 1 331 166 331 1 1 166 1 166 166 1 1 1 496 166 1 1 331 331 166 1 1 1 166 166 1 166 166 166 166 1 1 1 1 1 1 1 1 166 166 1 166 1 1 166 166 1 1 166 166 1 166 1 331 1 166 166 1 1 331 166 331 166 1 331 166 1 1 331 331 331 1 166 166 166 1 1 331 331 1 166 331 166 166 1 1 1 166 331 331 1 1 1 1 331 1 1 1 166 166 1 1 331 166 1 1 166 1 1 331 1 1 1 331 331 331 166 166 1 1 1 331 331 331 331 1 166 1 1 1 166 331 1 1 1 1 331 331 1 166 331 1 1 331 1 166 166 166 166 166 1 331 1 496 1 166 1 166 331 166 166 1 1 166 1 166 1 1 1 1 166 166 166 166 1 166 166 166 166 1 1 1 1 1 1 166 166 166 166 331 1 166 331 331 1 166 166 1 166 331 1 1 331 331 166 331 166 1 166 331 1 166 1 1 166 166 1 1 166 166 1 1 166 331 166 166 1 331 1 331 1 331 331 1 1 166 166 1 1 1 1 1 1 1 1 166 1 166 1 1 1 1 166 166 1 331 1 1 166 166 166 166 1 166 331 1 166 166 331 1 1 1 331 166 1 166 331 1 166 166 1 166 166 166 166 1 1 166 166 166 1 166 1 166 166 331 1 331 166 1 166 1 1 331 1 166 166 331 1 1 166 1 166 1 1 166 1 166 166 331 166 166 1 166 1 166 166 166 166 1 1 1 1 1 1 1 166 1 1 166 1 331 331 1 1 166 166 166 166 1 1 1 1 166 166 331 1 166 166 1 1 166 1 166 166 1 166 1 166 331 166 166 166 1 1 166 1 1 331 331 496 166 1 166 1 1 166 331 166 166 166 1 1 166 166 1 331 1 166 1 166 1 1 331 1 1 166 1 1 166 166 
! -------------------------------------------------------- 
